12° run output:
{
    "Function": "kroA750.tsp",
    "Problem dimension": [
        601,
        628,
        16,
        655,
        224,
        150,
        247,
        268,
        649,
        676,
        562,
        244,
        243,
        481,
        193,
        319,
        165,
        635,
        246,
        20,
        296,
        27,
        638,
        38,
        616,
        726,
        130,
        555,
        291,
        173,
        589,
        218,
        643,
        383,
        25,
        631,
        318,
        156,
        185,
        623,
        670,
        477,
        71,
        512,
        70,
        353,
        575,
        233,
        559,
        269,
        14,
        197,
        514,
        719,
        155,
        697,
        220,
        680,
        22,
        122,
        157,
        388,
        53,
        417,
        505,
        160,
        548,
        527,
        511,
        721,
        276,
        685,
        167,
        735,
        189,
        489,
        326,
        178,
        579,
        281,
        263,
        673,
        560,
        371,
        293,
        128,
        696,
        343,
        596,
        277,
        567,
        102,
        552,
        529,
        503,
        100,
        74,
        132,
        578,
        283,
        282,
        668,
        335,
        645,
        541,
        663,
        192,
        380,
        51,
        568,
        393,
        84,
        630,
        533,
        733,
        297,
        590,
        446,
        690,
        217,
        439,
        679,
        711,
        422,
        325,
        437,
        570,
        576,
        135,
        32,
        141,
        373,
        275,
        444,
        62,
        187,
        564,
        416,
        0,
        334,
        195,
        494,
        536,
        317,
        179,
        498,
        528,
        465,
        240,
        497,
        114,
        597,
        41,
        478,
        523,
        640,
        65,
        352,
        636,
        401,
        397,
        30,
        298,
        577,
        712,
        419,
        744,
        620,
        238,
        551,
        294,
        82,
        109,
        288,
        650,
        561,
        506,
        361,
        308,
        433,
        734,
        611,
        338,
        537,
        34,
        85,
        12,
        703,
        749,
        705,
        271,
        18,
        508,
        286,
        350,
        539,
        457,
        385,
        671,
        472,
        366,
        112,
        702,
        557,
        182,
        13,
        356,
        81,
        583,
        728,
        517,
        153,
        139,
        743,
        495,
        626,
        6,
        339,
        168,
        647,
        499,
        689,
        212,
        359,
        413,
        740,
        724,
        58,
        382,
        657,
        107,
        485,
        72,
        718,
        722,
        639,
        694,
        386,
        226,
        674,
        31,
        230,
        593,
        194,
        656,
        3,
        474,
        136,
        26,
        700,
        207,
        169,
        581,
        210,
        142,
        675,
        225,
        434,
        259,
        398,
        203,
        312,
        442,
        450,
        747,
        428,
        646,
        709,
        129,
        265,
        699,
        78,
        245,
        695,
        66,
        43,
        234,
        507,
        484,
        667,
        145,
        461,
        549,
        368,
        395,
        664,
        148,
        98,
        493,
        379,
        602,
        105,
        231,
        731,
        89,
        543,
        342,
        208,
        582,
        660,
        698,
        285,
        140,
        54,
        535,
        332,
        487,
        410,
        708,
        106,
        206,
        241,
        509,
        355,
        235,
        323,
        405,
        186,
        376,
        463,
        632,
        486,
        80,
        692,
        411,
        409,
        222,
        553,
        2,
        574,
        302,
        270,
        311,
        199,
        362,
        91,
        440,
        725,
        378,
        713,
        310,
        710,
        349,
        569,
        544,
        300,
        641,
        314,
        372,
        452,
        678,
        204,
        403,
        97,
        496,
        432,
        287,
        364,
        183,
        558,
        159,
        133,
        462,
        604,
        629,
        381,
        516,
        146,
        163,
        351,
        438,
        180,
        550,
        316,
        746,
        113,
        466,
        333,
        239,
        116,
        519,
        580,
        625,
        704,
        651,
        370,
        464,
        739,
        584,
        88,
        598,
        455,
        147,
        661,
        229,
        599,
        251,
        10,
        608,
        572,
        211,
        707,
        666,
        242,
        47,
        448,
        394,
        627,
        642,
        600,
        492,
        665,
        357,
        17,
        232,
        322,
        546,
        215,
        391,
        123,
        340,
        303,
        406,
        727,
        540,
        120,
        344,
        8,
        337,
        594,
        522,
        389,
        407,
        687,
        469,
        360,
        347,
        471,
        459,
        737,
        324,
        369,
        412,
        59,
        607,
        149,
        252,
        256,
        110,
        262,
        476,
        742,
        445,
        606,
        467,
        595,
        358,
        213,
        479,
        748,
        96,
        126,
        345,
        588,
        488,
        214,
        715,
        573,
        423,
        545,
        741,
        279,
        447,
        36,
        377,
        524,
        720,
        532,
        408,
        138,
        470,
        166,
        521,
        688,
        29,
        547,
        45,
        1,
        181,
        566,
        421,
        257,
        585,
        216,
        691,
        531,
        99,
        729,
        219,
        633,
        124,
        254,
        63,
        392,
        55,
        619,
        652,
        115,
        504,
        435,
        83,
        258,
        396,
        425,
        137,
        415,
        677,
        613,
        736,
        200,
        730,
        375,
        327,
        19,
        571,
        309,
        473,
        682,
        500,
        556,
        429,
        587,
        273,
        188,
        144,
        346,
        341,
        723,
        131,
        170,
        336,
        21,
        609,
        714,
        501,
        190,
        738,
        73,
        390,
        653,
        143,
        612,
        87,
        33,
        151,
        57,
        441,
        443,
        518,
        111,
        662,
        184,
        171,
        44,
        42,
        458,
        278,
        515,
        52,
        223,
        374,
        431,
        669,
        69,
        591,
        693,
        255,
        67,
        436,
        261,
        460,
        253,
        304,
        701,
        152,
        295,
        430,
        172,
        267,
        592,
        290,
        104,
        306,
        348,
        37,
        108,
        117,
        28,
        127,
        68,
        648,
        299,
        449,
        387,
        554,
        95,
        420,
        490,
        4,
        134,
        610,
        684,
        563,
        90,
        526,
        426,
        480,
        603,
        706,
        250,
        400,
        249,
        525,
        209,
        320,
        264,
        125,
        237,
        196,
        622,
        272,
        483,
        542,
        475,
        624,
        23,
        118,
        307,
        605,
        177,
        672,
        321,
        64,
        329,
        482,
        538,
        191,
        367,
        60,
        15,
        50,
        7,
        236,
        621,
        154,
        534,
        46,
        39,
        644,
        454,
        384,
        305,
        161,
        119,
        301,
        686,
        354,
        618,
        103,
        530,
        77,
        266,
        328,
        732,
        11,
        248,
        284,
        363,
        175,
        24,
        35,
        174,
        565,
        654,
        331,
        158,
        40,
        586,
        502,
        227,
        274,
        402,
        683,
        280,
        56,
        164,
        221,
        399,
        292,
        658,
        75,
        5,
        92,
        418,
        101,
        79,
        510,
        716,
        93,
        49,
        414,
        681,
        404,
        228,
        94,
        313,
        315,
        162,
        614,
        201,
        365,
        289,
        451,
        617,
        48,
        427,
        86,
        260,
        424,
        456,
        615,
        176,
        491,
        202,
        513,
        9,
        520,
        745,
        468,
        121,
        205,
        717,
        76,
        634,
        453,
        659,
        330,
        61,
        637,
        198
    ],
    "Global Optimum": 0,
    "Algorithm": "Genetic algorithm",
    "Parameters": {
        "population": 30,
        "offspring": 30,
        "mutation probability": 0.0013333333333333333,
        "crossover probability": 0.9
    },
    "Fitness": 861983,
    "Solution": [
        601,
        628,
        16,
        655,
        224,
        150,
        247,
        268,
        649,
        676,
        562,
        244,
        243,
        481,
        193,
        319,
        165,
        635,
        246,
        20,
        296,
        27,
        638,
        38,
        616,
        726,
        130,
        555,
        291,
        173,
        589,
        218,
        643,
        383,
        25,
        631,
        318,
        156,
        185,
        623,
        670,
        477,
        71,
        512,
        70,
        353,
        575,
        233,
        559,
        269,
        14,
        197,
        514,
        719,
        155,
        697,
        220,
        680,
        22,
        122,
        157,
        388,
        53,
        417,
        505,
        160,
        548,
        527,
        511,
        721,
        276,
        685,
        167,
        735,
        189,
        489,
        326,
        178,
        579,
        281,
        263,
        673,
        560,
        371,
        293,
        128,
        696,
        343,
        596,
        277,
        567,
        102,
        552,
        529,
        503,
        100,
        74,
        132,
        578,
        283,
        282,
        668,
        335,
        645,
        541,
        663,
        192,
        380,
        51,
        568,
        393,
        84,
        630,
        533,
        733,
        297,
        590,
        446,
        690,
        217,
        439,
        679,
        711,
        422,
        325,
        437,
        570,
        576,
        135,
        32,
        141,
        373,
        275,
        444,
        62,
        187,
        564,
        416,
        0,
        334,
        195,
        494,
        536,
        317,
        179,
        498,
        528,
        465,
        240,
        497,
        114,
        597,
        41,
        478,
        523,
        640,
        65,
        352,
        636,
        401,
        397,
        30,
        298,
        577,
        712,
        419,
        744,
        620,
        238,
        551,
        294,
        82,
        109,
        288,
        650,
        561,
        506,
        361,
        308,
        433,
        734,
        611,
        338,
        537,
        34,
        85,
        12,
        703,
        749,
        705,
        271,
        18,
        508,
        286,
        350,
        539,
        457,
        385,
        671,
        472,
        366,
        112,
        702,
        557,
        182,
        13,
        356,
        81,
        583,
        728,
        517,
        153,
        139,
        743,
        495,
        626,
        6,
        339,
        168,
        647,
        499,
        689,
        212,
        359,
        413,
        740,
        724,
        58,
        382,
        657,
        107,
        485,
        72,
        718,
        722,
        639,
        694,
        386,
        226,
        674,
        31,
        230,
        593,
        194,
        656,
        3,
        474,
        136,
        26,
        700,
        207,
        169,
        581,
        210,
        142,
        675,
        225,
        434,
        259,
        398,
        203,
        312,
        442,
        450,
        747,
        428,
        646,
        709,
        129,
        265,
        699,
        78,
        245,
        695,
        66,
        43,
        234,
        507,
        484,
        667,
        145,
        461,
        549,
        368,
        395,
        664,
        148,
        98,
        493,
        379,
        602,
        105,
        231,
        731,
        89,
        543,
        342,
        208,
        582,
        660,
        698,
        285,
        140,
        54,
        535,
        332,
        487,
        410,
        708,
        106,
        206,
        241,
        509,
        355,
        235,
        323,
        405,
        186,
        376,
        463,
        632,
        486,
        80,
        692,
        411,
        409,
        222,
        553,
        2,
        574,
        302,
        270,
        311,
        199,
        362,
        91,
        440,
        725,
        378,
        713,
        310,
        710,
        349,
        569,
        544,
        300,
        641,
        314,
        372,
        452,
        678,
        204,
        403,
        97,
        496,
        432,
        287,
        364,
        183,
        558,
        159,
        133,
        462,
        604,
        629,
        381,
        516,
        146,
        163,
        351,
        438,
        180,
        550,
        316,
        746,
        113,
        466,
        333,
        239,
        116,
        519,
        580,
        625,
        704,
        651,
        370,
        464,
        739,
        584,
        88,
        598,
        455,
        147,
        661,
        229,
        599,
        251,
        10,
        608,
        572,
        211,
        707,
        666,
        242,
        47,
        448,
        394,
        627,
        642,
        600,
        492,
        665,
        357,
        17,
        232,
        322,
        546,
        215,
        391,
        123,
        340,
        303,
        406,
        727,
        540,
        120,
        344,
        8,
        337,
        594,
        522,
        389,
        407,
        687,
        469,
        360,
        347,
        471,
        459,
        737,
        324,
        369,
        412,
        59,
        607,
        149,
        252,
        256,
        110,
        262,
        476,
        742,
        445,
        606,
        467,
        595,
        358,
        213,
        479,
        748,
        96,
        126,
        345,
        588,
        488,
        214,
        715,
        573,
        423,
        545,
        741,
        279,
        447,
        36,
        377,
        524,
        720,
        532,
        408,
        138,
        470,
        166,
        521,
        688,
        29,
        547,
        45,
        1,
        181,
        566,
        421,
        257,
        585,
        216,
        691,
        531,
        99,
        729,
        219,
        633,
        124,
        254,
        63,
        392,
        55,
        619,
        652,
        115,
        504,
        435,
        83,
        258,
        396,
        425,
        137,
        415,
        677,
        613,
        736,
        200,
        730,
        375,
        327,
        19,
        571,
        309,
        473,
        682,
        500,
        556,
        429,
        587,
        273,
        188,
        144,
        346,
        341,
        723,
        131,
        170,
        336,
        21,
        609,
        714,
        501,
        190,
        738,
        73,
        390,
        653,
        143,
        612,
        87,
        33,
        151,
        57,
        441,
        443,
        518,
        111,
        662,
        184,
        171,
        44,
        42,
        458,
        278,
        515,
        52,
        223,
        374,
        431,
        669,
        69,
        591,
        693,
        255,
        67,
        436,
        261,
        460,
        253,
        304,
        701,
        152,
        295,
        430,
        172,
        267,
        592,
        290,
        104,
        306,
        348,
        37,
        108,
        117,
        28,
        127,
        68,
        648,
        299,
        449,
        387,
        554,
        95,
        420,
        490,
        4,
        134,
        610,
        684,
        563,
        90,
        526,
        426,
        480,
        603,
        706,
        250,
        400,
        249,
        525,
        209,
        320,
        264,
        125,
        237,
        196,
        622,
        272,
        483,
        542,
        475,
        624,
        23,
        118,
        307,
        605,
        177,
        672,
        321,
        64,
        329,
        482,
        538,
        191,
        367,
        60,
        15,
        50,
        7,
        236,
        621,
        154,
        534,
        46,
        39,
        644,
        454,
        384,
        305,
        161,
        119,
        301,
        686,
        354,
        618,
        103,
        530,
        77,
        266,
        328,
        732,
        11,
        248,
        284,
        363,
        175,
        24,
        35,
        174,
        565,
        654,
        331,
        158,
        40,
        586,
        502,
        227,
        274,
        402,
        683,
        280,
        56,
        164,
        221,
        399,
        292,
        658,
        75,
        5,
        92,
        418,
        101,
        79,
        510,
        716,
        93,
        49,
        414,
        681,
        404,
        228,
        94,
        313,
        315,
        162,
        614,
        201,
        365,
        289,
        451,
        617,
        48,
        427,
        86,
        260,
        424,
        456,
        615,
        176,
        491,
        202,
        513,
        9,
        520,
        745,
        468,
        121,
        205,
        717,
        76,
        634,
        453,
        659,
        330,
        61,
        637,
        198
    ],
    "Nb of functions evaluations": 400020,
    "Computational time in seconds": 3854.136960506439,
    "Stopping criterion in evaluations": 400000
}